% demand
num_movements = 21;
loading_factor = [1350, 1750, 2000, 1900, 1700, 1400, 1850, 2000, 1000, 1900, 1700, 1850, 800, 1650, 1200, 1450, 900, 1400, 1050, 1150, 1250];
pickup_time = [0, 0, 0, 1, 2, 4, 4, 4, 5, 5, 5, 5, 7, 7, 7, 7, 8, 8, 8, 9, 9];
delivery_time = [4, 4, 1, 4, 4, 5, 5, 5, 6, 8, 6, 6, 9, 9, 11, 8, 10, 11, 11, 11, 11];

% transporter definition
total_capacity = 7000;
num_decks = 3;
capacity = [3000, 1000, 3000];

% ways out of decks
num_ways_out = 1;
paths_out = array3d(decks, ways_out, decks, [
% ways out of deck d1
2, 3, 0, 

% ways out of deck d2
3, 0, 0, 

% ways out of deck d3
0, 0, 0,	

]);

